maximize
0.25V(0,1) + 0.75V(0,2)
subject to
V(1201,1) - 1F(1201,1) - 0F(1201,2) - V(1202,1) <= 0
V(1201,2) - 0F(1201,1) - 1F(1201,2) - V(1202,2) <= 0
V(1202,1) - 1F(1202,1) - 0F(1202,2) - V(0,1) <= 0
V(1202,2) - 0F(1202,1) - 1F(1202,2) - V(0,2) <= 0
V(1,1) = 0
V(1,2) - 0F(1,1) - 1F(1,2) - V(3,2) <= 0
V(1302,1) - 1F(1302,1) - 0F(1302,2) - V(1303,1) <= 0
V(1302,2) - 0F(1302,1) - 1F(1302,2) - V(1303,2) <= 0
V(8,1) - 1F(8,1) - 0F(8,2) - V(2,1) <= 0
V(8,2) - 0F(8,1) - 1F(8,2) - V(2,2) <= 0
V(1204,1) - 1F(1204,1) - 0F(1204,2) - V(3,1) <= 0
V(1204,2) - 0F(1204,1) - 1F(1204,2) - V(3,2) <= 0
V(1101,1) - 1F(1101,1) - 0F(1101,2) - V(1102,1) <= 0
V(1101,2) - 0F(1101,1) - 1F(1101,2) - V(1102,2) <= 0
V(2,1) - 1F(2,1) - 0F(2,2) - V(8,1) <= 0
V(2,2) = 0
V(3,1) - 1F(3,1) - 0F(3,2) - V(1,1) <= 0
V(3,2) - 0F(3,1) - 1F(3,2) - V(1,2) <= 0
V(0,1) - 1F(0,1) - 0F(0,2) - V(1101,1) <= 0
V(0,2) - 0F(0,1) - 1F(0,2) - V(1101,2) <= 0
V(3,1) - 1F(3,1) - 0F(3,2) - V(1301,1) <= 0
V(3,2) - 0F(3,1) - 1F(3,2) - V(1301,2) <= 0
V(1301,1) - 1F(1301,1) - 0F(1301,2) - V(1302,1) <= 0
V(1301,2) - 0F(1301,1) - 1F(1301,2) - V(1302,2) <= 0
V(1304,1) - 1F(1304,1) - 0F(1304,2) - V(8,1) <= 0
V(1304,2) - 0F(1304,1) - 1F(1304,2) - V(8,2) <= 0
V(1303,1) - 1F(1303,1) - 0F(1303,2) - V(0,1) <= 0
V(1303,2) - 0F(1303,1) - 1F(1303,2) - V(0,2) <= 0
V(1103,1) - 1F(1103,1) - 0F(1103,2) - V(3,1) <= 0
V(1103,2) - 0F(1103,1) - 1F(1103,2) - V(3,2) <= 0
V(8,1) - 1F(8,1) - 0F(8,2) - V(1201,1) <= 0
V(8,2) - 0F(8,1) - 1F(8,2) - V(1201,2) <= 0
V(1102,1) - 1F(1102,1) - 0F(1102,2) - V(1103,1) <= 0
V(1102,2) - 0F(1102,1) - 1F(1102,2) - V(1103,2) <= 0
V(1203,1) - 1F(1203,1) - 0F(1203,2) - V(1204,1) <= 0
V(1203,2) - 0F(1203,1) - 1F(1203,2) - V(1204,2) <= 0
V(1102,1) - 1F(1102,1) - 0F(1102,2) - V(8,1) <= 0
V(1102,2) - 0F(1102,1) - 1F(1102,2) - V(8,2) <= 0
V(1202,1) - 1F(1202,1) - 0F(1202,2) - V(1203,1) <= 0
V(1202,2) - 0F(1202,1) - 1F(1202,2) - V(1203,2) <= 0
V(1303,1) - 1F(1303,1) - 0F(1303,2) - V(1304,1) <= 0
V(1303,2) - 0F(1303,1) - 1F(1303,2) - V(1304,2) <= 0
F(0,1) + F(0,2) = 1 
F(1,1) + F(1,2) = 1 
F(2,1) + F(2,2) = 1 
F(3,1) + F(3,2) = 1 
F(8,1) + F(8,2) = 1 
F(1101,1) + F(1101,2) = 1 
F(1102,1) + F(1102,2) = 1 
F(1103,1) + F(1103,2) = 1 
F(1201,1) + F(1201,2) = 1 
F(1202,1) + F(1202,2) = 1 
F(1203,1) + F(1203,2) = 1 
F(1204,1) + F(1204,2) = 1 
F(1301,1) + F(1301,2) = 1 
F(1302,1) + F(1302,2) = 1 
F(1303,1) + F(1303,2) = 1 
F(1304,1) + F(1304,2) = 1 
bounds
F(1201,1)  >= 0
F(1203,1)  >= 0
F(1301,2)  >= 0
F(1103,1)  >= 0
V(1103,1)  free 
F(8,2)  >= 0
F(1,2)  >= 0
V(8,1)  free 
V(0,2)  free 
V(1303,1)  free 
V(2,2)  free 
V(1203,1)  free 
V(1304,1)  free 
V(3,2)  free 
V(1202,1)  free 
V(1102,1)  free 
V(1302,1)  free 
F(0,2)  >= 0
F(1303,1)  >= 0
V(1202,2)  free 
F(2,1)  >= 0
F(1301,1)  >= 0
V(1204,2)  free 
V(1201,2)  free 
V(1101,2)  free 
F(1302,1)  >= 0
F(3,1)  >= 0
F(1202,2)  >= 0
F(8,1)  >= 0
V(1301,1)  free 
F(1204,2)  >= 0
F(1101,2)  >= 0
V(1,2)  free 
F(1102,2)  >= 0
V(1103,2)  free 
V(0,1)  free 
F(1,1)  >= 0
V(1304,2)  free 
V(1203,2)  free 
V(1102,2)  free 
F(1103,2)  >= 0
V(2,1)  free 
F(0,1)  >= 0
V(1303,2)  free 
F(1304,2)  >= 0
V(1302,2)  free 
V(3,1)  free 
V(1101,1)  free 
F(2,2)  >= 0
F(1304,1)  >= 0
F(3,2)  >= 0
F(1202,1)  >= 0
F(1303,2)  >= 0
V(1204,1)  free 
F(1102,1)  >= 0
F(1302,2)  >= 0
F(1101,1)  >= 0
V(1201,1)  free 
V(1301,2)  free 
V(8,2)  free 
F(1201,2)  >= 0
V(1,1)  free 
F(1204,1)  >= 0
F(1203,2)  >= 0
